nNurses = 175;
nHours = 32;
minHours = 6;
maxHours = 12;
maxConsec = 11;
maxPresence = 30;
demand = [20, 15, 17, 15, 17, 12, 13, 13, 16, 13, 12, 14, 12, 15, 14, 15, 18, 18, 23, 20, 16, 20, 25, 28, 29, 31, 32, 27, 24, 20, 18, 16];
